#######################################
### Exact MIP solver for the HHCRSP ###
#######################################
-- Instance file: new-instances/HHCRSP_200_40_72_1.6_C_RC.txt
-- Max threads: 4
-- Time limit: 999999 seconds
-- Use initial solution: No
Trivial flow violations prevented generating 355792 variables.
Version identifier: 20.1.0.0 | 2020-11-10 | 9bedb6d68
CPXPARAM_Threads                                 4
CPXPARAM_TimeLimit                               999999
Parallel mode: deterministic, using up to 4 threads for concurrent optimization:
 * Starting dual Simplex on 1 thread...
 * Starting Barrier on 3 threads...
Tried aggregator 1 time.
LP Presolve eliminated 20772 rows and 4733 columns.
Reduced LP has 372934 rows, 355179 columns, and 6298790 nonzeros.
Presolve time = 12.70 sec. (1465.32 ticks)
Symmetry aggregator did 543766 additional substitutions.

Iteration log . . .
Iteration:     1   Dual objective     =             0.000000

Dual crossover.
  Dual:  Fixing 808 variables.
      807 DMoves:  Infeasibility  6.38322734e-13  Objective  2.81000000e+02
        0 DMoves:  Infeasibility  2.65195279e-13  Objective  2.81000000e+02
  Dual:  Pushed 20, exchanged 788.
  Primal:  Fixing 478 variables.
      477 PMoves:  Infeasibility  5.55111512e-17  Objective  2.81000000e+02
        0 PMoves:  Infeasibility  2.22044605e-15  Objective  2.81000000e+02
  Primal:  Pushed 387, exchanged 91.

Dual simplex solved model.


Solution status from MIP model:
-- Processing time: 21.365 sec.
-- Memory used: 406.597 MB
-- Best bound: inf
-- Obj value: 281
-- Gap: inf%
-- Total distance: 843
-- Total tardiness: 0
-- Largest tardiness: 0
